%Mem=96MB 
%NProc=1 

#P HF/6-31G* SCF(Conver=6) NoSymm Test 
   Pop=mk IOp(6/33=2) GFInput GFPrint 

Molecular Electrostatic Potential Dimethylalanine-dipeptide_(alpha-helix) 

0 1 
  C       -1.37243753      4.00648907      1.56760088
  H       -2.14830363      3.48934128      2.12128118
  H       -0.91957497      4.74213278      2.22564602
  H       -1.80791581      4.52221020      0.72428918
  C       -0.29994859      3.06257867      1.06573215
  O        0.22917832      3.20493465      0.00000000
  N        0.00747287      2.03486580      1.90684181
  H       -0.39202838      2.07145902      2.81808132
  C        1.21116789      1.20718585      1.77438308
  C        1.18831956      0.19830698      2.93325847
  H        1.25105019      0.71625418      3.88629941
  H        0.28117369     -0.39595430      2.91834722
  H        2.03688027     -0.46875058      2.85578600
  C        2.48548184      2.05517140      1.84267882
  H        3.35916000      1.42181984      1.79012437
  H        2.52657107      2.75934551      1.02420808
  H        2.50244046      2.60282039      2.78061505
  C        1.20440224      0.37918644      0.47564341
  O        2.23954816      0.00000000     -0.00000000
  N        0.00000000      0.00000000      0.00000000
  H       -0.79302602      0.51013240      0.30853783
  C       -0.09901934     -0.70608807     -1.25962915
  H        0.15719654     -0.07046161     -2.10053945
  H        0.56970995     -1.55383757     -1.25442826
  H       -1.11491798     -1.05999672     -1.37964168



