%Mem=96MB 
%NProc=1 

#P HF/6-31G* SCF(Conver=6) NoSymm Test 
   Pop=mk IOp(6/33=2) GFInput GFPrint 

Molecular Electrostatic Potential Dimethylalanine-dipeptide_(alpha-helix) 

0 1 
  C       -1.53009364      0.93084707     -1.56760088
  H       -1.50428346      1.86291138     -2.12128118
  H       -1.91263724      0.15630426     -2.22564602
  H       -2.19838311      1.02570905     -0.72428918
  C       -0.16057481      0.52388572     -1.06573215
  O        0.00000000      0.00000000      0.00000000
  N        0.87339186      0.80956847     -1.90684181
  H        0.63010438      1.12855361     -2.81808132
  C        2.21416888      0.22969539     -1.77438308
  C        3.05668090      0.78515206     -2.93325847
  H        2.65124542      0.45678260     -3.88629941
  H        3.07805651      1.86940442     -2.91834722
  H        4.07267725      0.42077250     -2.85578600
  C        2.17296230     -1.30042145     -1.84267882
  H        3.17375223     -1.70398961     -1.79012437
  H        1.59826823     -1.70941563     -1.02420808
  H        1.71804302     -1.60579902     -2.78061505
  C        2.91199824      0.67541164     -0.47564341
  O        3.78327808     -0.00000000     -0.00000000
  N        2.59322015      1.89719216      0.00000000
  H        1.73967026      2.29791390     -0.30853783
  C        3.13875251      2.35627780      1.25962915
  H        2.73644199      1.80146809      2.10053945
  H        4.21225937      2.24025576      1.25442826
  H        2.89872842      3.40493877      1.37964168



