%Mem=96MB 
%NProc=1 

#P HF/6-31G* SCF(Conver=6) NoSymm Test 
   Pop=mk IOp(6/33=2) GFInput GFPrint 

Molecular Electrostatic Potential Dimethylalanine-dipeptide 

0 1 
  C       -1.41822311     -0.52981771      0.03174897
  H       -1.45212212     -1.60416488      0.17527914
  H       -1.95489359     -0.06135980      0.85139009
  H       -1.91029632     -0.26959427     -0.89395723
  C        0.00000000      0.00000000      0.00000000
  O        0.33293171      0.89219797     -0.72743713
  N        0.86959055     -0.62048071      0.84674857
  H        0.47471762     -1.26149581      1.49826431
  C        2.18166578     -0.07428406      1.20952800
  C        2.81664616     -1.06115714      2.20161280
  H        2.22353193     -1.11760004      3.11019476
  H        2.89287210     -2.05435915      1.77263517
  H        3.81020866     -0.72526081      2.46812781
  C        2.05436264      1.30928562      1.85539848
  H        3.02641927      1.67202033      2.15662786
  H        1.62504440      2.02105513      1.16509864
  H        1.41666725      1.23899597      2.73194588
  C        3.13239046      0.00000000      0.00000000
  O        4.04396277      0.78139748      0.00000000
  N        2.96840525     -0.93067702     -0.96309547
  H        2.09241632     -1.39466581     -1.00406762
  C        3.76302023     -0.87945489     -2.17181137
  H        3.49996720     -0.02973985     -2.79276639
  H        4.80943477     -0.80608476     -1.91580632
  H        3.60091586     -1.79135052     -2.73205498



