%Mem=96MB 
%NProc=1 

#P HF/6-31G* SCF(Conver=6) NoSymm Test 
   Pop=mk IOp(6/33=2) GFInput GFPrint 

Molecular Electrostatic Potential Dimethylalanine-dipeptide_(extended) 

0 1 
  C        4.54357451      3.95131286      0.02822353
  H        5.06201523      3.02772034     -0.19796919
  H        4.83663597      4.71431980     -0.68076621
  H        4.84049976      4.28606066      1.01624189
  C        3.03422009      3.81983065     -0.00048316
  O        2.32948818      4.79746186      0.00000000
  N        2.56913160      2.55512513     -0.00498214
  H        3.21237671      1.79515772     -0.00329221
  C        1.16874554      2.16256768      0.00160025
  C        0.45840985      2.67251106     -1.26491514
  H        0.52598227      3.74960032     -1.30456246
  H        0.92595112      2.26044703     -2.15270355
  H       -0.59070222      2.39659736     -1.27275583
  C        0.46967498      2.66823486      1.27614811
  H       -0.57875222      2.39027772      1.29317057
  H        0.94612900      2.25446457      2.15844769
  H        0.53577020      3.74537586      1.31803248
  C        1.19230771      0.62009208      0.00008896
  O        2.22601238     -0.00000000      0.00000000
  N        0.00000000      0.00000000      0.00000000
  H       -0.83524669      0.53427086     -0.00138671
  C       -0.09654812     -1.44550159     -0.00099061
  H        0.37636011     -1.86399256     -0.87990276
  H        0.37956607     -1.86507877      0.87562325
  H       -1.14290451     -1.71876769      0.00076658



